% Instancia problemática tipo: RESTRICCIONES_CONFLICTIVAS
% Razón: Demandas requieren capacidades conflictivas
% Demanda total: 4194.9
% Suministro total: 4404.64
% Factor holgura: 1.05

nP = 2;
nT = 3;
nC1 = 4;
nC2 = 6;
nA = 42;
nD = 3;

arc_from = [1, 1, 1, 2, 2, 2, 3, 3, 3, 3, 4, 4, 4, 4, 5, 5, 5, 5, 6, 6, 6, 6, 6, 6, 7, 7, 7, 7, 7, 7, 8, 8, 8, 8, 8, 8, 9, 9, 9, 9, 9, 9];
arc_to = [3, 4, 5, 3, 4, 5, 6, 7, 8, 9, 6, 7, 8, 9, 6, 7, 8, 9, 10, 11, 12, 13, 14, 15, 10, 11, 12, 13, 14, 15, 10, 11, 12, 13, 14, 15, 10, 11, 12, 13, 14, 15];

supply = [2202.32, 2202.32, 0, 0, 0, 0, 0, 0, 0, 0, 0, 0, 0, 0, 0];
demand = [0, 0, 0, 0, 0, 896.54, 962.57, 1022.07, 896.13, 73.80, 85.59, 72.41, 50.86, 64.71, 70.22];

max_capacity = [795, 1414, 3181];

install_cost = array2d(1..nA, 1..nD, [
  20, 24, 32,
  50, 62, 78,
  20, 24, 32,
  50, 62, 78,
  20, 24, 32,
  50, 62, 78,
  20, 24, 32,
  50, 62, 78,
  20, 24, 32,
  50, 62, 78,
  20, 24, 32,
  50, 62, 78,
  20, 24, 32,
  50, 62, 78,
  20, 24, 32,
  50, 62, 78,
  20, 24, 32,
  50, 62, 78,
  20, 24, 32,
  50, 62, 78,
  20, 24, 32,
  50, 62, 78,
  20, 24, 32,
  50, 62, 78,
  20, 24, 32,
  50, 62, 78,
  20, 24, 32,
  50, 62, 78,
  20, 24, 32,
  50, 62, 78,
  20, 24, 32,
  50, 62, 78,
  20, 24, 32,
  50, 62, 78,
  20, 24, 32,
  50, 62, 78,
  20, 24, 32,
  50, 62, 78,
  20, 24, 32,
  50, 62, 78,
  20, 24, 32,
  50, 62, 78
]);

trans_cost = [1.97, 3.66, 2.48, 3.21, 2.38, 4.99, 3.20, 2.41, 2.81, 2.23, 1.92, 3.89, 2.26, 3.97, 4.80, 3.76, 1.77, 3.95, 2.11, 3.36, 4.04, 3.39, 4.92, 4.33, 2.18, 2.44, 2.21, 3.83, 1.51, 1.18, 1.22, 2.17, 4.78, 3.55, 4.01, 1.41, 1.05, 2.14, 2.91, 2.36, 4.86, 2.01];
